PbPc
   1.00000000000000     
    25.0000000000000000    0.0000000000000000    0.0000000000000000
     0.0000000000000000   25.0000000000000000    0.0000000000000000
     0.0000000000000000    0.0000000000000000   25.0000000000000000
   C    Pb   H    N 
    32     1    16     8
Selective dynamics
Direct
  0.1117076716635972  0.0449116281416610  0.0113504638770440   T   T   T
  0.1673067633231093  0.0282841589859138  0.0041596524622431   T   T   T
  0.2148185252200802  0.0570548950818119  0.9983668284833841   T   T   T
  0.2623904240310204  0.0281542589880414  0.9937582114445828   T   T   T
  0.1117076716635972  0.9550883718583387  0.0113504638770440   T   T   T
  0.1673067633231093  0.9717158410140861  0.0041596524622431   T   T   T
  0.2148185252200802  0.9429451049181878  0.9983668284833841   T   T   T
  0.2623904240310204  0.9718457410119584  0.9937582114445828   T   T   T
  0.9550883718583387  0.1117076716635972  0.0113504638770440   T   T   T
  0.9717158410140861  0.1673067633231093  0.0041596524622431   T   T   T
  0.9429451049181878  0.2148185252200802  0.9983668284833841   T   T   T
  0.9718457410119584  0.2623904240310204  0.9937582114445828   T   T   T
  0.0449116281416610  0.1117076716635972  0.0113504638770440   T   T   T
  0.0282841589859138  0.1673067633231093  0.0041596524622431   T   T   T
  0.0570548950818119  0.2148185252200802  0.9983668284833841   T   T   T
  0.0281542589880414  0.2623904240310204  0.9937582114445828   T   T   T
  0.0449116281416610  0.8882923283364028  0.0113504638770440   T   T   T
  0.0282841589859138  0.8326932366768908  0.0041596524622431   T   T   T
  0.0570548950818119  0.7851814747799198  0.9983668284833841   T   T   T
  0.0281542589880414  0.7376095759689797  0.9937582114445828   T   T   T
  0.9550883718583387  0.8882923283364028  0.0113504638770440   T   T   T
  0.9717158410140861  0.8326932366768908  0.0041596524622431   T   T   T
  0.9429451049181878  0.7851814747799198  0.9983668284833841   T   T   T
  0.9718457410119584  0.7376095759689797  0.9937582114445828   T   T   T
  0.8882923283364028  0.9550883718583387  0.0113504638770440   T   T   T
  0.8326932366768908  0.9717158410140861  0.0041596524622431   T   T   T
  0.7851814747799198  0.9429451049181878  0.9983668284833841   T   T   T
  0.7376095759689797  0.9718457410119584  0.9937582114445828   T   T   T
  0.8882923283364028  0.0449116281416610  0.0113504638770440   T   T   T
  0.8326932366768908  0.0282841589859138  0.0041596524622431   T   T   T
  0.7851814747799198  0.0570548950818119  0.9983668284833841   T   T   T
  0.7376095759689797  0.0281542589880414  0.9937582114445828   T   T   T
  0.0000000000000000  0.0000000000000000  0.0673231799015794   T   T   T
  0.2144607167753140  0.1006952630162565  0.9980998328890174   T   T   T
  0.3003730340348575  0.0494547625741246  0.9903384505692081   T   T   T
  0.2144607167753140  0.8993047369837432  0.9980998328890174   T   T   T
  0.3003730340348575  0.9505452374258752  0.9903384505692081   T   T   T
  0.8993047369837432  0.2144607167753140  0.9980998328890174   T   T   T
  0.9505452374258752  0.3003730340348575  0.9903384505692081   T   T   T
  0.1006952630162565  0.2144607167753140  0.9980998328890174   T   T   T
  0.0494547625741246  0.3003730340348575  0.9903384505692081   T   T   T
  0.1006952630162565  0.7855392832246859  0.9980998328890174   T   T   T
  0.0494547625741246  0.6996269659651427  0.9903384505692081   T   T   T
  0.8993047369837432  0.7855392832246859  0.9980998328890174   T   T   T
  0.9505452374258752  0.6996269659651427  0.9903384505692081   T   T   T
  0.7855392832246859  0.8993047369837432  0.9980998328890174   T   T   T
  0.6996269659651427  0.9505452374258752  0.9903384505692081   T   T   T
  0.7855392832246859  0.1006952630162565  0.9980998328890174   T   T   T
  0.6996269659651427  0.0494547625741246  0.9903384505692081   T   T   T
  0.0804057033488361  0.0000000000000000  0.0165752491698487   T   T   T
  0.0959192650259256  0.0959192650259256  0.0109108027107897   T   T   T
  0.0000000000000000  0.0804057033488361  0.0165752491698487   T   T   T
  0.9040807349740740  0.0959192650259256  0.0109108027107897   T   T   T
  0.0000000000000000  0.9195942966511641  0.0165752491698487   T   T   T
  0.0959192650259256  0.9040807349740740  0.0109108027107897   T   T   T
  0.9195942966511641  0.0000000000000000  0.0165752491698487   T   T   T
  0.9040807349740740  0.9040807349740740  0.0109108027107897   T   T   T
 
  0.00000000E+00  0.00000000E+00  0.00000000E+00
  0.00000000E+00  0.00000000E+00  0.00000000E+00
  0.00000000E+00  0.00000000E+00  0.00000000E+00
  0.00000000E+00  0.00000000E+00  0.00000000E+00
  0.00000000E+00  0.00000000E+00  0.00000000E+00
  0.00000000E+00  0.00000000E+00  0.00000000E+00
  0.00000000E+00  0.00000000E+00  0.00000000E+00
  0.00000000E+00  0.00000000E+00  0.00000000E+00
  0.00000000E+00  0.00000000E+00  0.00000000E+00
  0.00000000E+00  0.00000000E+00  0.00000000E+00
  0.00000000E+00  0.00000000E+00  0.00000000E+00
  0.00000000E+00  0.00000000E+00  0.00000000E+00
  0.00000000E+00  0.00000000E+00  0.00000000E+00
  0.00000000E+00  0.00000000E+00  0.00000000E+00
  0.00000000E+00  0.00000000E+00  0.00000000E+00
  0.00000000E+00  0.00000000E+00  0.00000000E+00
  0.00000000E+00  0.00000000E+00  0.00000000E+00
  0.00000000E+00  0.00000000E+00  0.00000000E+00
  0.00000000E+00  0.00000000E+00  0.00000000E+00
  0.00000000E+00  0.00000000E+00  0.00000000E+00
  0.00000000E+00  0.00000000E+00  0.00000000E+00
  0.00000000E+00  0.00000000E+00  0.00000000E+00
  0.00000000E+00  0.00000000E+00  0.00000000E+00
  0.00000000E+00  0.00000000E+00  0.00000000E+00
  0.00000000E+00  0.00000000E+00  0.00000000E+00
  0.00000000E+00  0.00000000E+00  0.00000000E+00
  0.00000000E+00  0.00000000E+00  0.00000000E+00
  0.00000000E+00  0.00000000E+00  0.00000000E+00
  0.00000000E+00  0.00000000E+00  0.00000000E+00
  0.00000000E+00  0.00000000E+00  0.00000000E+00
  0.00000000E+00  0.00000000E+00  0.00000000E+00
  0.00000000E+00  0.00000000E+00  0.00000000E+00
  0.00000000E+00  0.00000000E+00  0.00000000E+00
  0.00000000E+00  0.00000000E+00  0.00000000E+00
  0.00000000E+00  0.00000000E+00  0.00000000E+00
  0.00000000E+00  0.00000000E+00  0.00000000E+00
  0.00000000E+00  0.00000000E+00  0.00000000E+00
  0.00000000E+00  0.00000000E+00  0.00000000E+00
  0.00000000E+00  0.00000000E+00  0.00000000E+00
  0.00000000E+00  0.00000000E+00  0.00000000E+00
  0.00000000E+00  0.00000000E+00  0.00000000E+00
  0.00000000E+00  0.00000000E+00  0.00000000E+00
  0.00000000E+00  0.00000000E+00  0.00000000E+00
  0.00000000E+00  0.00000000E+00  0.00000000E+00
  0.00000000E+00  0.00000000E+00  0.00000000E+00
  0.00000000E+00  0.00000000E+00  0.00000000E+00
  0.00000000E+00  0.00000000E+00  0.00000000E+00
  0.00000000E+00  0.00000000E+00  0.00000000E+00
  0.00000000E+00  0.00000000E+00  0.00000000E+00
  0.00000000E+00  0.00000000E+00  0.00000000E+00
  0.00000000E+00  0.00000000E+00  0.00000000E+00
  0.00000000E+00  0.00000000E+00  0.00000000E+00
  0.00000000E+00  0.00000000E+00  0.00000000E+00
  0.00000000E+00  0.00000000E+00  0.00000000E+00
  0.00000000E+00  0.00000000E+00  0.00000000E+00
  0.00000000E+00  0.00000000E+00  0.00000000E+00
  0.00000000E+00  0.00000000E+00  0.00000000E+00
