 C  H  N Tb                             
   1.00000000000000     
    30.0000000000000000    0.0000000000000000    0.0000000000000000
     0.0000000000000000   30.0000000000000000    0.0000000000000000
     0.0000000000000000    0.0000000000000000   30.0000000000000000
   C    H    N    Tb
    64    32    16     1
Selective dynamics
Direct
  0.5923875274682799  0.5369950035652012  0.4990214989147027   T   T   T
  0.6367162282113321  0.6701381026699168  0.6258380505640700   T   T   T
  0.5919943025786133  0.5393388913624992  0.6024355838311201   T   T   T
  0.6149943075272839  0.5817163280344725  0.6102871537090251   T   T   T
  0.6595456147990117  0.5924500992155122  0.6175748342404020   T   T   T
  0.6699974068839554  0.6372269456363391  0.6252365617909937   T   T   T
  0.4083480684996965  0.5393704393203332  0.6027378194791235   T   T   T
  0.3854081052713789  0.5817602615722763  0.6106588494220684   T   T   T
  0.3409036212729448  0.5925002216357924  0.6181728449991560   T   T   T
  0.3305135207997670  0.6372540811342692  0.6260190811334041   T   T   T
  0.4609743178319380  0.5916308110425464  0.6030977422958488   T   T   T
  0.4187407393819167  0.6147820807398943  0.6110029399719126   T   T   T
  0.4085033233139467  0.6592993859751022  0.6190401871859843   T   T   T
  0.3638058019243855  0.6701518388930831  0.6265045636201509   T   T   T
  0.5920012423453872  0.4609754127969624  0.6025243156316721   T   T   T
  0.6150038435351056  0.4186268475496072  0.6104573744926832   T   T   T
  0.6595767969973572  0.4079327140900232  0.6176422437425770   T   T   T
  0.6700513039306338  0.3631990340495840  0.6254987182574099   T   T   T
  0.5393854252898053  0.4087060241876034  0.6033622743438750   T   T   T
  0.5816765280167969  0.3856021282523359  0.6111700800441380   T   T   T
  0.5919962319864202  0.3411204315766180  0.6193058979999965   T   T   T
  0.6367650510380706  0.3303017431168055  0.6263994383605263   T   T   T
  0.4609347959615987  0.4086952734116410  0.6034225125437187   T   T   T
  0.4186594116092988  0.3856002184400817  0.6112921185765919   T   T   T
  0.4083594901392912  0.3411279773128105  0.6194790477698628   T   T   T
  0.3636268118085901  0.3303343485070084  0.6268086054688946   T   T   T
  0.4083125801840525  0.4609917893228947  0.6027770674461220   T   T   T
  0.3853390672243109  0.4186345614771221  0.6107098792722404   T   T   T
  0.3407987656614518  0.4079545911486500  0.6180679462511723   T   T   T
  0.3303499418853491  0.3632403215244288  0.6260354131068226   T   T   T
  0.5919668279546753  0.6592797732283014  0.6186764782747819   T   T   T
  0.5816741051257939  0.6147496200563377  0.6107559569296583   T   T   T
  0.5394016778902230  0.5916060466423271  0.6029849933826235   T   T   T
  0.5370168511089413  0.4073250145457646  0.4986580176080640   T   T   T
  0.3220615853154323  0.5472203485536294  0.4832850192045245   T   T   T
  0.3612073186589058  0.5233323797871300  0.4902555024021478   T   T   T
  0.4073380888358833  0.5369881170822982  0.4986565062860056   T   T   T
  0.2835495571478346  0.4760749031689214  0.4740479114961382   T   T   T
  0.3229600777291775  0.4521541077664930  0.4807790508270165   T   T   T
  0.3615198699910107  0.4764477082139693  0.4893032516458700   T   T   T
  0.4076052390557565  0.4629447662849773  0.4977806616762083   T   T   T
  0.4760484299422721  0.2835618655085221  0.4739457648995663   T   T   T
  0.4521475786031098  0.3229725273020259  0.4807356890380160   T   T   T
  0.2830883026166680  0.5228648775178524  0.4754782948480165   T   T   T
  0.4764664973477453  0.3615124796090401  0.4892767147535739   T   T   T
  0.5228429194116584  0.2831036089283663  0.4752579243322089   T   T   T
  0.5472234790043738  0.3220701448015023  0.4830341285965329   T   T   T
  0.5233552444232641  0.3612043002807852  0.4901593661683445   T   T   T
  0.4628285655576936  0.5922538348345198  0.4985004426455784   T   T   T
  0.5228664716935829  0.7167612563026686  0.4764321085660445   T   T   T
  0.5472072988316343  0.6776852685298181  0.4837570131687489   T   T   T
  0.5232917177845389  0.6385575477710580  0.4907360453545592   T   T   T
  0.5369651258303773  0.5924196540570401  0.4990327894654736   T   T   T
  0.4760597298015606  0.7164138621692472  0.4754354348606245   T   T   T
  0.4629616257080347  0.4075801184213978  0.4978295221213013   T   T   T
  0.4521036013388469  0.6770027333840590  0.4820407248798357   T   T   T
  0.7165143526149710  0.4762037692954881  0.4758887425720906   T   T   T
  0.6383527944759644  0.4764420627938018  0.4901609038486313   T   T   T
  0.6770826802984489  0.4522046186028781  0.4822400078143694   T   T   T
  0.6385518031016041  0.5233506416301935  0.4908484491741270   T   T   T
  0.4763839916396715  0.6383332834249197  0.4901041341287680   T   T   T
  0.7168314377498380  0.5230096968703348  0.4769798917681489   T   T   T
  0.5922537645062723  0.4628589239318416  0.4984499017354062   T   T   T
  0.6776966261720283  0.5473103232553082  0.4841233206683837   T   T   T
  0.2957333114742835  0.3536357859965201  0.6320812940681029   T   T   T
  0.3151471884930664  0.4337953674089355  0.6176427347428034   T   T   T
  0.3543032451620057  0.2957677955725175  0.6335379306452370   T   T   T
  0.4345464825141043  0.3158384169429780  0.6202115725558401   T   T   T
  0.6461093805686980  0.2957179768373815  0.6330323771926223   T   T   T
  0.5658083875109207  0.3158307914157419  0.6201617612572070   T   T   T
  0.7046979383363271  0.3535594084772581  0.6313365686837491   T   T   T
  0.6852448754003447  0.4337621276658569  0.6171494520796915   T   T   T
  0.2959300505852716  0.6468987018251289  0.6322019872440943   T   T   T
  0.3152262129881934  0.5666808927615226  0.6179762491756708   T   T   T
  0.7046245660684376  0.6468926559136727  0.6311585228932681   T   T   T
  0.6852222457666367  0.5666243082229220  0.6173229507977596   T   T   T
  0.6460504952291235  0.7047606531615352  0.6322928998815928   T   T   T
  0.5657779985409307  0.6845785225279158  0.6193110949718931   T   T   T
  0.3545222094105297  0.7047533531509189  0.6331215734108147   T   T   T
  0.4347065540513328  0.6845811812747565  0.6195551950658073   T   T   T
  0.7483214098760175  0.5406558596577943  0.4720884150858085   T   T   T
  0.5404158289594226  0.2516338488266033  0.4700001238424230   T   T   T
  0.4581473943932765  0.7475462742527984  0.4693623994456100   T   T   T
  0.5836275628920214  0.6776111486941788  0.4842936678514086   T   T   T
  0.5404799337370200  0.7482310128479293  0.4713105221544743   T   T   T
  0.5836377565485710  0.3220287184090353  0.4837851309174973   T   T   T
  0.6775940473610522  0.5837314364013179  0.4847427267762193   T   T   T
  0.4157534967728471  0.3238555973426570  0.4795762266413305   T   T   T
  0.4581062170924770  0.2525308941621826  0.4674576264036434   T   T   T
  0.3238269168263431  0.4157626506796892  0.4795710575041280   T   T   T
  0.2525183461596659  0.4581546087333137  0.4675055488259995   T   T   T
  0.3220230895708298  0.5836306796251474  0.4841754667363911   T   T   T
  0.2516204602039840  0.5404556720617731  0.4702736789659204   T   T   T
  0.6763411710074657  0.4157977399216451  0.4812620049081682   T   T   T
  0.4156972496978196  0.6762195155838004  0.4811337740283786   T   T   T
  0.7476965069462386  0.4583270788522159  0.4699596897446945   T   T   T
  0.5472095211279223  0.5469552530186510  0.5966989407659238   T   T   T
  0.5001911794177613  0.6125141136696485  0.6045408643638498   T   T   T
  0.4531050861422851  0.5469735158340706  0.5968618824980078   T   T   T
  0.3873281691878384  0.5001841858728201  0.6039598474324710   T   T   T
  0.5472011169084925  0.4533195625266835  0.5968842224483742   T   T   T
  0.6130088643818593  0.5001548550194896  0.6036163931415490   T   T   T
  0.4530860165151520  0.4533246143609895  0.5970214536303455   T   T   T
  0.5001575829716218  0.3878190050185424  0.6049897578444574   T   T   T
  0.5795045819716834  0.5795393642362887  0.4978084748536354   T   T   T
  0.4998876756079193  0.5662495789630294  0.5051331455713256   T   T   T
  0.4202598237407368  0.5794704498177548  0.4971849870822721   T   T   T
  0.4999757816135480  0.4335091992124170  0.5049065090151929   T   T   T
  0.5794868649792966  0.4202760817340299  0.4971478017437498   T   T   T
  0.4335534259160657  0.4999560008217239  0.5047920277599397   T   T   T
  0.4204855793987547  0.4204620036742687  0.4960292535132275   T   T   T
  0.5662152582563700  0.4999047773308670  0.5050273316539858   T   T   T
  0.4999503149966677  0.4999419029896762  0.5510058501225068   T   T   T
 
  0.00000000E+00  0.00000000E+00  0.00000000E+00
  0.00000000E+00  0.00000000E+00  0.00000000E+00
  0.00000000E+00  0.00000000E+00  0.00000000E+00
  0.00000000E+00  0.00000000E+00  0.00000000E+00
  0.00000000E+00  0.00000000E+00  0.00000000E+00
  0.00000000E+00  0.00000000E+00  0.00000000E+00
  0.00000000E+00  0.00000000E+00  0.00000000E+00
  0.00000000E+00  0.00000000E+00  0.00000000E+00
  0.00000000E+00  0.00000000E+00  0.00000000E+00
  0.00000000E+00  0.00000000E+00  0.00000000E+00
  0.00000000E+00  0.00000000E+00  0.00000000E+00
  0.00000000E+00  0.00000000E+00  0.00000000E+00
  0.00000000E+00  0.00000000E+00  0.00000000E+00
  0.00000000E+00  0.00000000E+00  0.00000000E+00
  0.00000000E+00  0.00000000E+00  0.00000000E+00
  0.00000000E+00  0.00000000E+00  0.00000000E+00
  0.00000000E+00  0.00000000E+00  0.00000000E+00
  0.00000000E+00  0.00000000E+00  0.00000000E+00
  0.00000000E+00  0.00000000E+00  0.00000000E+00
  0.00000000E+00  0.00000000E+00  0.00000000E+00
  0.00000000E+00  0.00000000E+00  0.00000000E+00
  0.00000000E+00  0.00000000E+00  0.00000000E+00
  0.00000000E+00  0.00000000E+00  0.00000000E+00
  0.00000000E+00  0.00000000E+00  0.00000000E+00
  0.00000000E+00  0.00000000E+00  0.00000000E+00
  0.00000000E+00  0.00000000E+00  0.00000000E+00
  0.00000000E+00  0.00000000E+00  0.00000000E+00
  0.00000000E+00  0.00000000E+00  0.00000000E+00
  0.00000000E+00  0.00000000E+00  0.00000000E+00
  0.00000000E+00  0.00000000E+00  0.00000000E+00
  0.00000000E+00  0.00000000E+00  0.00000000E+00
  0.00000000E+00  0.00000000E+00  0.00000000E+00
  0.00000000E+00  0.00000000E+00  0.00000000E+00
  0.00000000E+00  0.00000000E+00  0.00000000E+00
  0.00000000E+00  0.00000000E+00  0.00000000E+00
  0.00000000E+00  0.00000000E+00  0.00000000E+00
  0.00000000E+00  0.00000000E+00  0.00000000E+00
  0.00000000E+00  0.00000000E+00  0.00000000E+00
  0.00000000E+00  0.00000000E+00  0.00000000E+00
  0.00000000E+00  0.00000000E+00  0.00000000E+00
  0.00000000E+00  0.00000000E+00  0.00000000E+00
  0.00000000E+00  0.00000000E+00  0.00000000E+00
  0.00000000E+00  0.00000000E+00  0.00000000E+00
  0.00000000E+00  0.00000000E+00  0.00000000E+00
  0.00000000E+00  0.00000000E+00  0.00000000E+00
  0.00000000E+00  0.00000000E+00  0.00000000E+00
  0.00000000E+00  0.00000000E+00  0.00000000E+00
  0.00000000E+00  0.00000000E+00  0.00000000E+00
  0.00000000E+00  0.00000000E+00  0.00000000E+00
  0.00000000E+00  0.00000000E+00  0.00000000E+00
  0.00000000E+00  0.00000000E+00  0.00000000E+00
  0.00000000E+00  0.00000000E+00  0.00000000E+00
  0.00000000E+00  0.00000000E+00  0.00000000E+00
  0.00000000E+00  0.00000000E+00  0.00000000E+00
  0.00000000E+00  0.00000000E+00  0.00000000E+00
  0.00000000E+00  0.00000000E+00  0.00000000E+00
  0.00000000E+00  0.00000000E+00  0.00000000E+00
  0.00000000E+00  0.00000000E+00  0.00000000E+00
  0.00000000E+00  0.00000000E+00  0.00000000E+00
  0.00000000E+00  0.00000000E+00  0.00000000E+00
  0.00000000E+00  0.00000000E+00  0.00000000E+00
  0.00000000E+00  0.00000000E+00  0.00000000E+00
  0.00000000E+00  0.00000000E+00  0.00000000E+00
  0.00000000E+00  0.00000000E+00  0.00000000E+00
  0.00000000E+00  0.00000000E+00  0.00000000E+00
  0.00000000E+00  0.00000000E+00  0.00000000E+00
  0.00000000E+00  0.00000000E+00  0.00000000E+00
  0.00000000E+00  0.00000000E+00  0.00000000E+00
  0.00000000E+00  0.00000000E+00  0.00000000E+00
  0.00000000E+00  0.00000000E+00  0.00000000E+00
  0.00000000E+00  0.00000000E+00  0.00000000E+00
  0.00000000E+00  0.00000000E+00  0.00000000E+00
  0.00000000E+00  0.00000000E+00  0.00000000E+00
  0.00000000E+00  0.00000000E+00  0.00000000E+00
  0.00000000E+00  0.00000000E+00  0.00000000E+00
  0.00000000E+00  0.00000000E+00  0.00000000E+00
  0.00000000E+00  0.00000000E+00  0.00000000E+00
  0.00000000E+00  0.00000000E+00  0.00000000E+00
  0.00000000E+00  0.00000000E+00  0.00000000E+00
  0.00000000E+00  0.00000000E+00  0.00000000E+00
  0.00000000E+00  0.00000000E+00  0.00000000E+00
  0.00000000E+00  0.00000000E+00  0.00000000E+00
  0.00000000E+00  0.00000000E+00  0.00000000E+00
  0.00000000E+00  0.00000000E+00  0.00000000E+00
  0.00000000E+00  0.00000000E+00  0.00000000E+00
  0.00000000E+00  0.00000000E+00  0.00000000E+00
  0.00000000E+00  0.00000000E+00  0.00000000E+00
  0.00000000E+00  0.00000000E+00  0.00000000E+00
  0.00000000E+00  0.00000000E+00  0.00000000E+00
  0.00000000E+00  0.00000000E+00  0.00000000E+00
  0.00000000E+00  0.00000000E+00  0.00000000E+00
  0.00000000E+00  0.00000000E+00  0.00000000E+00
  0.00000000E+00  0.00000000E+00  0.00000000E+00
  0.00000000E+00  0.00000000E+00  0.00000000E+00
  0.00000000E+00  0.00000000E+00  0.00000000E+00
  0.00000000E+00  0.00000000E+00  0.00000000E+00
  0.00000000E+00  0.00000000E+00  0.00000000E+00
  0.00000000E+00  0.00000000E+00  0.00000000E+00
  0.00000000E+00  0.00000000E+00  0.00000000E+00
  0.00000000E+00  0.00000000E+00  0.00000000E+00
  0.00000000E+00  0.00000000E+00  0.00000000E+00
  0.00000000E+00  0.00000000E+00  0.00000000E+00
  0.00000000E+00  0.00000000E+00  0.00000000E+00
  0.00000000E+00  0.00000000E+00  0.00000000E+00
  0.00000000E+00  0.00000000E+00  0.00000000E+00
  0.00000000E+00  0.00000000E+00  0.00000000E+00
  0.00000000E+00  0.00000000E+00  0.00000000E+00
  0.00000000E+00  0.00000000E+00  0.00000000E+00
  0.00000000E+00  0.00000000E+00  0.00000000E+00
  0.00000000E+00  0.00000000E+00  0.00000000E+00
  0.00000000E+00  0.00000000E+00  0.00000000E+00
  0.00000000E+00  0.00000000E+00  0.00000000E+00
  0.00000000E+00  0.00000000E+00  0.00000000E+00
